SDVRP instances/p04/p04_1050_tsplib0_split0.vrp
NAME:.\SDVRP_split
BEST_KNOWN: 0
COMMENT: 0
DIMENSION: 706
CAPACITY: 200
EDGE_WEIGHT_FORMAT: FUNCTION
EDGE_WEIGHT_TYPE: EXACT_2D
NODE_COORD_SECTION
1 0.00000 0.00000
2 2 17
3 2 17
4 2 17
5 2 17
6 2 17
7 2 17
8 14 14
9 14 14
10 14 14
11 17 29
12 17 29
13 17 29
14 17 29
15 17 29
16 17 29
17 -15 -9
18 -15 -9
19 -15 -9
20 -15 -9
21 5 -5
22 5 -5
23 5 -5
24 5 -5
25 -14 12
26 -14 12
27 -14 12
28 -14 12
29 -14 12
30 -14 12
31 -18 28
32 -18 28
33 -18 28
34 -18 28
35 -18 28
36 -18 28
37 -18 28
38 -4 27
39 -4 27
40 -4 27
41 -4 27
42 -4 27
43 17 -2
44 17 -2
45 17 -2
46 17 -2
47 17 -2
48 16 -14
49 16 -14
50 7 6
51 7 6
52 7 6
53 7 6
54 -4 -3
55 -4 -3
56 -4 -3
57 -30 -10
58 -30 -10
59 -30 -10
60 -30 -10
61 -30 -10
62 -30 -10
63 -23 7
64 -23 7
65 -23 7
66 1 -19
67 1 -19
68 1 -19
69 1 -19
70 1 -19
71 1 -19
72 17 6
73 17 6
74 17 6
75 -8 -12
76 -8 -12
77 -8 -12
78 -8 -12
79 -18 -2
80 -18 -2
81 -22 -22
82 -22 -22
83 -22 -22
84 -22 -22
85 -22 -22
86 -22 -22
87 22 23
88 22 23
89 22 23
90 22 23
91 27 7
92 27 7
93 27 7
94 27 7
95 27 7
96 7 22
97 7 22
98 7 22
99 -19 22
100 -19 22
101 -19 22
102 -19 22
103 -27 17
104 -27 17
105 -27 17
106 -27 17
107 -27 17
108 -28 3
109 -28 3
110 -28 3
111 -28 3
112 -8 33
113 -8 33
114 -8 33
115 -8 33
116 -8 33
117 -8 33
118 -8 33
119 -5 13
120 -5 13
121 8 32
122 8 32
123 8 32
124 23 13
125 23 13
126 23 13
127 23 -8
128 23 -8
129 23 -8
130 23 -8
131 23 -8
132 2 34
133 2 34
134 2 34
135 2 34
136 2 34
137 2 34
138 3 11
139 3 11
140 3 11
141 3 11
142 11 -25
143 11 -25
144 11 -25
145 11 -25
146 11 -25
147 26 -2
148 26 -2
149 26 -2
150 26 -2
151 26 -2
152 26 -2
153 27 28
154 27 28
155 27 28
156 27 28
157 27 28
158 27 28
159 28 34
160 28 34
161 28 34
162 28 34
163 28 34
164 28 34
165 -3 -13
166 -3 -13
167 -3 -13
168 10 0
169 10 0
170 10 0
171 10 0
172 10 0
173 10 0
174 24 -20
175 24 -20
176 24 -20
177 24 -20
178 24 -20
179 24 -20
180 -30 -29
181 -30 -29
182 -30 -29
183 -30 -29
184 -30 -29
185 -25 -18
186 -25 -18
187 -25 -18
188 -25 -18
189 -25 -18
190 -14 -25
191 -14 -25
192 -14 -25
193 -14 -25
194 -30 29
195 -30 29
196 -30 29
197 -5 -20
198 -5 -20
199 -5 -20
200 -5 -20
201 -5 -20
202 4 -25
203 4 -25
204 4 -25
205 -3 4
206 -3 4
207 -10 -3
208 -10 -3
209 -10 -3
210 -10 -3
211 -10 -3
212 -10 -3
213 -10 -3
214 -10 20
215 -10 20
216 -10 20
217 -10 20
218 13 -7
219 13 -7
220 13 -7
221 13 -7
222 13 -7
223 13 -7
224 21 2
225 21 2
226 21 2
227 21 2
228 21 2
229 21 2
230 21 2
231 6 14
232 6 14
233 6 14
234 6 14
235 6 14
236 0 -18
237 0 -18
238 0 -18
239 0 -18
240 20 10
241 20 10
242 20 10
243 20 10
244 20 -15
245 20 -15
246 20 -15
247 20 -15
248 20 -15
249 -20 -5
250 -20 -5
251 -20 -5
252 -20 -5
253 -20 -5
254 -20 -5
255 -20 -5
256 -20 -5
257 -10 -5
258 -10 -5
259 -10 -5
260 -10 -5
261 -10 -5
262 -10 -5
263 -10 -5
264 -15 15
265 -15 15
266 -15 15
267 -25 8
268 -25 8
269 -25 8
270 -25 8
271 -25 8
272 -25 8
273 20 25
274 20 25
275 20 25
276 -5 25
277 -5 25
278 -5 25
279 -5 25
280 -5 25
281 -15 30
282 -15 30
283 -15 30
284 15 0
285 15 0
286 -5 -10
287 -5 -10
288 -5 -10
289 -5 -10
290 -20 -25
291 -20 -25
292 -20 -25
293 -5 -30
294 -5 -30
295 -5 -30
296 -5 -30
297 -5 -30
298 -25 -15
299 -25 -15
300 -25 -15
301 -25 -15
302 -25 -15
303 -25 -15
304 -30 -5
305 -30 -5
306 -30 -5
307 -30 -5
308 -30 -5
309 -30 -5
310 -15 5
311 -15 5
312 -15 5
313 -15 5
314 -15 5
315 -20 25
316 -20 25
317 -20 25
318 -20 25
319 -20 25
320 -20 25
321 -20 25
322 10 30
323 10 30
324 10 30
325 10 30
326 10 30
327 10 30
328 10 30
329 10 -15
330 10 -15
331 10 -15
332 10 -15
333 10 -15
334 10 -15
335 10 -25
336 10 -25
337 10 -25
338 10 -25
339 20 -30
340 20 -30
341 20 -30
342 20 -30
343 20 -30
344 20 -30
345 30 0
346 30 0
347 30 0
348 30 0
349 30 0
350 30 0
351 30 0
352 30 0
353 30 -15
354 30 -15
355 30 -15
356 10 -5
357 10 -5
358 10 -5
359 10 -5
360 0 5
361 0 5
362 0 5
363 0 5
364 0 5
365 6 2
366 6 2
367 6 2
368 6 2
369 6 2
370 6 2
371 6 2
372 29 7
373 29 7
374 29 7
375 29 7
376 29 7
377 5 25
378 5 25
379 5 25
380 5 25
381 -4 17
382 -4 17
383 -4 17
384 -4 17
385 0 34
386 0 34
387 18 17
388 18 17
389 18 17
390 18 17
391 18 17
392 30 20
393 30 20
394 30 20
395 30 20
396 28 30
397 28 30
398 28 30
399 28 30
400 28 30
401 28 30
402 28 30
403 -33 25
404 -33 25
405 -33 25
406 -15 -15
407 -15 -15
408 -15 -15
409 -15 -15
410 -15 -15
411 -15 -15
412 -15 -15
413 -30 -30
414 -30 -30
415 -30 -30
416 -30 -30
417 25 -23
418 25 -23
419 25 -23
420 25 -23
421 25 -23
422 25 -23
423 5 -10
424 5 -10
425 5 -10
426 5 -10
427 5 -10
428 5 -10
429 7 -28
430 7 -28
431 7 -28
432 7 -28
433 7 -28
434 -11 -23
435 -11 -23
436 -11 -23
437 -11 -23
438 -11 -23
439 -12 -32
440 -12 -32
441 -12 -32
442 -12 -32
443 -24 -21
444 -24 -21
445 -24 -21
446 -24 -21
447 -24 -21
448 -24 -21
449 -29 3
450 -29 3
451 -29 3
452 -29 3
453 -29 3
454 -33 13
455 -33 13
456 -33 13
457 -33 13
458 -27 21
459 -27 21
460 -27 21
461 -22 17
462 -22 17
463 -22 17
464 -22 17
465 -29 33
466 -29 33
467 -29 33
468 12 12
469 12 12
470 12 12
471 12 12
472 12 12
473 14 23
474 14 23
475 14 23
476 14 23
477 14 23
478 -8 8
479 -8 8
480 -8 8
481 -8 8
482 2 -4
483 2 -4
484 22 -6
485 22 -6
486 22 -6
487 22 -6
488 22 -6
489 22 -6
490 28 -12
491 28 -12
492 28 -12
493 28 -12
494 28 -12
495 18 -23
496 18 -23
497 18 -23
498 18 -23
499 18 -23
500 18 -23
501 -3 -23
502 -3 -23
503 -3 -23
504 -3 -23
505 -3 -23
506 1 -9
507 1 -9
508 1 -9
509 1 -9
510 -14 -11
511 -14 -11
512 -14 -11
513 -14 -11
514 -18 -1
515 -18 -1
516 -18 -1
517 -18 -1
518 -18 -1
519 -23 -11
520 -23 -11
521 -23 -11
522 -23 -11
523 -23 -11
524 -11 23
525 -11 23
526 -11 23
527 -11 23
528 -11 23
529 -8 34
530 -8 34
531 -20 42
532 -20 42
533 -20 42
534 27 42
535 27 42
536 27 42
537 27 42
538 27 42
539 27 42
540 14 38
541 14 38
542 14 38
543 32 -30
544 32 -30
545 32 -30
546 32 -30
547 32 -30
548 32 -30
549 21 4
550 21 4
551 21 4
552 21 4
553 21 4
554 2 12
555 2 12
556 2 12
557 2 21
558 2 21
559 2 21
560 2 21
561 2 21
562 22 33
563 22 33
564 22 33
565 22 33
566 22 33
567 12 -19
568 12 -19
569 12 -19
570 12 -19
571 12 -19
572 12 -19
573 12 -19
574 9 -18
575 9 -18
576 9 -18
577 11 -22
578 11 -22
579 14 -24
580 14 -24
581 14 -24
582 14 -24
583 14 7
584 14 7
585 14 7
586 18 8
587 18 8
588 18 8
589 18 8
590 18 8
591 18 8
592 18 8
593 26 17
594 26 17
595 26 17
596 26 17
597 26 17
598 26 17
599 26 17
600 22 13
601 22 13
602 22 13
603 22 13
604 22 13
605 21 2
606 21 2
607 21 2
608 21 2
609 21 2
610 20 19
611 20 19
612 20 19
613 -20 12
614 -20 12
615 -20 12
616 -20 12
617 -20 12
618 -20 12
619 -21 2
620 -21 2
621 -21 2
622 -24 -4
623 -24 -4
624 -24 -4
625 -24 -4
626 -24 -4
627 -24 -4
628 -24 -4
629 -19 -13
630 -19 -13
631 -19 -13
632 -19 -13
633 -31 -17
634 -31 -17
635 -31 -17
636 -31 -17
637 -31 -17
638 -7 -17
639 -7 -17
640 -7 -17
641 -7 -17
642 -9 17
643 -9 17
644 -9 17
645 -9 17
646 -9 0
647 -9 0
648 -9 0
649 -4 32
650 -4 32
651 -4 32
652 -4 32
653 -4 32
654 -4 32
655 -20 -16
656 -20 -16
657 -20 -16
658 -20 -16
659 -13 -13
660 -13 -13
661 -13 -13
662 -13 -13
663 -13 -13
664 -13 -13
665 -13 -13
666 -17 -11
667 -17 -11
668 -17 -11
669 -17 -11
670 -17 -11
671 -9 -8
672 -9 -8
673 -9 -8
674 -9 -8
675 -10 -11
676 -10 -11
677 -10 -11
678 -10 -11
679 -13 -8
680 -13 -8
681 -13 -8
682 -13 -8
683 -13 -8
684 -10 -14
685 -10 -14
686 -10 -14
687 -10 -14
688 -10 -14
689 -10 -14
690 -10 -14
691 -10 -14
692 -16 -14
693 -16 -14
694 -16 -14
695 -16 -14
696 -16 -14
697 -16 -14
698 -15 -9
699 -15 -9
700 -15 -9
701 -15 -9
702 -17 -17
703 -17 -17
704 -17 -17
705 -17 -17
706 -17 -17
DEMAND_SECTION
1 0
2 40
3 40
4 2
5 2
6 2
7 2
8 40
9 10
10 1
11 20
12 10
13 2
14 2
15 2
16 2
17 40
18 20
19 2
20 2
21 40
22 40
23 10
24 2
25 40
26 40
27 2
28 2
29 2
30 2
31 40
32 10
33 2
34 2
35 2
36 2
37 1
38 20
39 2
40 2
41 2
42 2
43 20
44 10
45 2
46 2
47 2
48 20
49 2
50 40
51 40
52 2
53 2
54 40
55 10
56 1
57 40
58 10
59 2
60 2
61 2
62 1
63 40
64 20
65 1
66 40
67 20
68 10
69 2
70 2
71 2
72 40
73 2
74 1
75 20
76 2
77 2
78 2
79 40
80 20
81 40
82 40
83 2
84 2
85 2
86 2
87 40
88 20
89 2
90 1
91 20
92 2
93 2
94 2
95 2
96 40
97 20
98 10
99 40
100 20
101 10
102 2
103 40
104 20
105 2
106 2
107 2
108 40
109 40
110 2
111 1
112 40
113 20
114 10
115 2
116 2
117 2
118 2
119 20
120 2
121 40
122 40
123 2
124 20
125 10
126 2
127 20
128 2
129 2
130 2
131 2
132 40
133 40
134 2
135 2
136 2
137 2
138 40
139 40
140 2
141 2
142 40
143 40
144 2
145 2
146 2
147 20
148 10
149 2
150 2
151 2
152 1
153 40
154 40
155 2
156 2
157 2
158 1
159 40
160 10
161 2
162 2
163 2
164 2
165 40
166 40
167 2
168 40
169 10
170 2
171 2
172 2
173 2
174 40
175 10
176 2
177 2
178 2
179 2
180 40
181 40
182 2
183 2
184 2
185 20
186 10
187 2
188 2
189 1
190 20
191 2
192 2
193 1
194 40
195 20
196 10
197 40
198 20
199 10
200 2
201 1
202 40
203 40
204 10
205 40
206 2
207 40
208 10
209 2
210 2
211 2
212 2
213 1
214 40
215 10
216 2
217 2
218 40
219 40
220 2
221 2
222 2
223 1
224 40
225 20
226 2
227 2
228 2
229 2
230 1
231 40
232 20
233 10
234 2
235 1
236 40
237 20
238 10
239 2
240 20
241 2
242 2
243 2
244 40
245 40
246 10
247 2
248 1
249 40
250 20
251 10
252 2
253 2
254 2
255 2
256 1
257 40
258 20
259 10
260 2
261 2
262 2
263 2
264 40
265 2
266 2
267 40
268 20
269 10
270 2
271 2
272 2
273 40
274 10
275 2
276 40
277 2
278 2
279 2
280 1
281 40
282 40
283 10
284 40
285 1
286 40
287 2
288 2
289 1
290 40
291 2
292 1
293 40
294 2
295 2
296 2
297 2
298 40
299 10
300 2
301 2
302 2
303 2
304 40
305 40
306 2
307 2
308 2
309 2
310 20
311 2
312 2
313 2
314 1
315 40
316 40
317 10
318 2
319 2
320 2
321 2
322 40
323 40
324 2
325 2
326 2
327 2
328 1
329 40
330 40
331 10
332 2
333 2
334 1
335 40
336 40
337 10
338 1
339 40
340 40
341 2
342 2
343 2
344 1
345 40
346 40
347 10
348 2
349 2
350 2
351 2
352 1
353 20
354 2
355 2
356 40
357 2
358 2
359 2
360 40
361 20
362 2
363 2
364 2
365 40
366 20
367 10
368 2
369 2
370 2
371 1
372 40
373 20
374 2
375 2
376 1
377 40
378 40
379 2
380 2
381 40
382 20
383 10
384 2
385 40
386 2
387 40
388 20
389 10
390 2
391 2
392 40
393 20
394 10
395 1
396 40
397 40
398 10
399 2
400 2
401 2
402 2
403 40
404 40
405 2
406 40
407 40
408 10
409 2
410 2
411 2
412 2
413 40
414 40
415 2
416 2
417 40
418 40
419 2
420 2
421 2
422 2
423 20
424 2
425 2
426 2
427 2
428 1
429 40
430 40
431 2
432 2
433 1
434 40
435 20
436 2
437 2
438 2
439 20
440 10
441 2
442 2
443 40
444 40
445 10
446 2
447 2
448 1
449 40
450 20
451 10
452 2
453 2
454 40
455 40
456 2
457 1
458 40
459 40
460 1
461 40
462 10
463 2
464 2
465 40
466 40
467 1
468 20
469 2
470 2
471 2
472 2
473 40
474 20
475 10
476 2
477 1
478 40
479 40
480 2
481 1
482 40
483 40
484 40
485 40
486 10
487 2
488 2
489 2
490 40
491 10
492 2
493 2
494 1
495 20
496 10
497 2
498 2
499 2
500 1
501 20
502 2
503 2
504 2
505 1
506 40
507 20
508 2
509 2
510 40
511 2
512 2
513 1
514 40
515 40
516 10
517 2
518 1
519 40
520 40
521 10
522 2
523 1
524 40
525 20
526 10
527 2
528 1
529 20
530 1
531 40
532 2
533 2
534 40
535 20
536 10
537 2
538 2
539 1
540 40
541 10
542 1
543 40
544 2
545 2
546 2
547 2
548 1
549 40
550 40
551 2
552 2
553 2
554 40
555 40
556 1
557 40
558 40
559 10
560 2
561 2
562 40
563 2
564 2
565 2
566 1
567 40
568 10
569 2
570 2
571 2
572 2
573 1
574 20
575 2
576 2
577 40
578 10
579 40
580 20
581 10
582 2
583 40
584 20
585 2
586 40
587 40
588 10
589 2
590 2
591 2
592 1
593 40
594 10
595 2
596 2
597 2
598 2
599 1
600 40
601 20
602 10
603 2
604 2
605 40
606 10
607 2
608 2
609 2
610 40
611 20
612 10
613 40
614 20
615 2
616 2
617 2
618 2
619 40
620 40
621 2
622 40
623 20
624 10
625 2
626 2
627 2
628 2
629 40
630 40
631 2
632 1
633 40
634 20
635 2
636 2
637 2
638 40
639 20
640 2
641 2
642 40
643 2
644 2
645 1
646 40
647 2
648 2
649 40
650 40
651 10
652 2
653 2
654 1
655 40
656 20
657 2
658 2
659 40
660 20
661 2
662 2
663 2
664 2
665 1
666 40
667 20
668 2
669 2
670 2
671 20
672 10
673 2
674 2
675 40
676 20
677 10
678 2
679 40
680 20
681 10
682 2
683 2
684 40
685 40
686 10
687 2
688 2
689 2
690 2
691 1
692 20
693 10
694 2
695 2
696 2
697 1
698 40
699 20
700 2
701 2
702 40
703 2
704 2
705 2
706 2
DEPOT_SECTION
1
-1
EOF