SDVRP instances/p04/p04_1050_tsplib0_split0.sol
705 -4 5 1 2 557 560 559 380 381 383 382 -6 3 558 556 378 377 379 376 95 96 -8 388 390 86 274 272 273 13 10 14 15 473 472 -9 154 152 157 399 395 396 401 398 397 400 159 163 161 162 158 160 -18 700 17 19 669 665 668 667 666 630 631 629 628 673 672 670 -21 22 23 20 481 482 -25 28 24 27 26 29 479 477 478 480 -39 41 653 650 652 649 648 651 529 528 117 115 113 116 114 112 111 277 -43 46 42 45 44 487 488 485 483 126 127 130 129 128 493 491 492 490 489 354 353 352 -51 52 49 50 584 583 582 364 366 -55 53 54 257 260 258 259 261 256 262 210 209 208 206 211 207 212 -67 69 70 68 201 202 203 431 428 430 429 432 -77 74 690 689 688 684 687 686 683 685 675 674 677 676 -79 78 517 514 513 515 516 645 647 646 -87 88 89 156 153 155 392 391 393 394 592 596 593 594 597 595 598 -90 92 91 94 93 373 372 374 375 371 123 124 125 601 603 599 602 600 -97 323 327 326 322 324 321 325 121 120 122 -98 100 33 34 35 36 31 32 30 282 280 281 -107 108 110 109 450 452 449 448 451 620 618 -118 119 526 523 527 525 524 213 215 216 214 641 643 642 644 -134 131 133 135 136 132 384 385 38 40 37 276 279 278 275 -137 139 140 138 360 359 361 362 363 -164 166 165 200 199 196 197 198 640 639 637 -169 171 172 168 167 170 222 219 221 220 217 218 355 356 358 357 -176 175 178 174 173 177 546 547 545 543 542 544 416 420 418 419 421 417 -182 181 183 179 180 414 415 412 413 189 190 191 192 -204 205 553 554 555 231 232 233 230 234 -223 229 225 608 604 606 607 605 226 227 228 551 552 549 548 550 -224 348 346 347 350 351 349 345 344 146 149 148 147 150 151 284 283 -235 238 236 237 65 66 508 506 505 507 -240 242 241 239 587 589 590 591 585 588 586 72 71 73 367 370 369 365 368 -253 252 249 255 251 250 254 248 622 626 623 627 624 621 625 519 -263 101 99 316 314 319 320 317 318 315 612 -265 264 194 195 193 466 465 464 530 531 532 -285 76 75 411 410 405 406 659 661 660 662 663 658 664 -288 286 287 638 437 434 435 433 436 441 440 438 439 294 296 293 295 292 504 502 501 503 500 -289 290 291 80 81 85 84 82 83 442 445 444 446 695 696 692 -300 298 297 299 302 301 635 633 636 634 632 185 186 187 188 184 443 447 -307 304 305 303 308 306 56 57 59 60 61 58 518 521 520 522 -310 311 313 613 614 616 617 615 402 404 403 459 457 458 463 462 -312 309 64 63 62 266 267 268 269 271 270 619 -332 329 328 331 568 572 566 571 570 567 569 577 576 574 -335 336 334 337 144 143 142 145 141 575 573 -389 387 386 609 611 610 7 467 468 469 470 471 -408 409 407 705 701 704 702 703 657 655 654 656 691 693 694 512 510 511 509 -426 425 422 427 423 424 330 333 47 48 244 247 246 243 245 486 484 -455 453 456 454 104 105 103 106 102 461 460 -475 474 476 11 12 562 564 565 563 561 535 533 534 538 536 537 541 540 539 -499 496 495 497 498 494 341 343 340 339 338 342 578 580 579 581 -671 699 16 698 697 680 682 679 678 681 0 





OBJ=
2917.603
BEST_KNOWN=
0.000